1798
87 70 69 55 71 39 98 20 72 60 3 11 1 35 76 14 23 31 64 22 74 78 63 52 27 38 9 19 36 34 28 51 18 54 88 46 44 15 26 91 21 32 86 83 81 82 94 50 79 53 58 56 47 6 96 4 93 90 42 66 75 33 99 10 8 7 25 49 5 16 67 48 2 57 97 12 30 84 77 43 68 85 95 73 92 37 89 62 45 24 80 41 65 29 61 40 13 17 59 
